solution status: optimal solution found
objective value:                                   18
x31                                                 1 	(obj:1)
x33                                                 1 	(obj:1)
x35                                                 1 	(obj:1)
x36                                                 1 	(obj:1)
x37                                                 1 	(obj:1)
x38                                                 1 	(obj:1)
x41                                                 1 	(obj:1)
x43                                                 1 	(obj:1)
x45                                                 1 	(obj:1)
x46                                                 1 	(obj:1)
x49                                                 1 	(obj:1)
x50                                                 1 	(obj:1)
x51                                                 1 	(obj:1)
x52                                                 1 	(obj:1)
x59                                                 1 	(obj:1)
x62                                                 1 	(obj:1)
x63                                                 1 	(obj:1)
x64                                                 1 	(obj:1)
one.thingy.devices[3].thingy.circulate2_y                   13 	(obj:0)
one.thingy.devices[3].thingy.circulate2_z                    7 	(obj:0)
one.ctrl_a[6].flush_y                               7 	(obj:0)
one.ctrl_a[6].flush_z                               2 	(obj:0)
one.thingy.devices[0].thingy.circulate2_y                   14 	(obj:0)
one.thingy.devices[0].thingy.circulate2_z                   10 	(obj:0)
one.thingy.devices[1].thingy.vs1_y                   11 	(obj:0)
one.thingy.devices[1].thingy.vs1_z                   10 	(obj:0)
one.ctrl_a[5].flush_y                               9 	(obj:0)
one.ctrl_a[5].flush_z                               3 	(obj:0)
one.thingy.devices[1].thingy.circulate2_y                   13 	(obj:0)
one.thingy.devices[1].thingy.circulate2_z                   10 	(obj:0)
one.thingy.devices[2].thingy.circulate2_y                   13 	(obj:0)
one.thingy.devices[2].thingy.circulate2_z                    9 	(obj:0)
one.ctrl_a[5].hole_y                               11 	(obj:0)
one.ctrl_a[5].hole_z                                6 	(obj:0)
one.thingy.devices[3].thingy.vs1_y                   10 	(obj:0)
one.thingy.devices[3].thingy.vs1_z                    6 	(obj:0)
one.ctrl_a[6].hole_y                                8 	(obj:0)
one.ctrl_a[6].hole_z                                5 	(obj:0)
one.thingy.devices[0].thingy.vs1_y                   11 	(obj:0)
one.thingy.devices[0].thingy.vs1_z                    9 	(obj:0)
one.thingy.devices[2].thingy.vs1_y                   10 	(obj:0)
one.thingy.devices[2].thingy.vs1_z                    7 	(obj:0)
